c bitvector 0: 1 2 3 4 5 6 7 8 9 10
c bitvector 1: 11 12 13 14 15 16 17 18 19 20
c bitvector 2: 21 22 23 24 25 26 27 28 29 30
c bitvector 3: 31 32 33 34 35 36 37 38 39 40
c bitvector 4: 41 42 43 44 45 46 47 48 49 50
c bitvector 5: 74 75
c bitvector 6: 98 99
p cnf 99 233
-1 0
2 0
-3 0
4 0
-5 0
-6 0
-7 0
-8 0
-9 0
-10 0
-11 0
-12 0
-13 0
-14 0
-15 0
-16 0
-17 0
-18 0
-19 0
-20 0
-51 0
-52 -21 1 0
-52 21 -1 0
52 21 1 0
52 -21 -1 0
-62 52 0
-53 -22 2 0
-53 22 -2 0
53 22 2 0
53 -22 -2 0
-62 53 0
-54 -23 3 0
-54 23 -3 0
54 23 3 0
54 -23 -3 0
-62 54 0
-55 -24 4 0
-55 24 -4 0
55 24 4 0
55 -24 -4 0
-62 55 0
-56 -25 5 0
-56 25 -5 0
56 25 5 0
56 -25 -5 0
-62 56 0
-57 -26 6 0
-57 26 -6 0
57 26 6 0
57 -26 -6 0
-62 57 0
-58 -27 7 0
-58 27 -7 0
58 27 7 0
58 -27 -7 0
-62 58 0
-59 -28 8 0
-59 28 -8 0
59 28 8 0
59 -28 -8 0
-62 59 0
-60 -29 9 0
-60 29 -9 0
60 29 9 0
60 -29 -9 0
-62 60 0
-61 -30 10 0
-61 30 -10 0
61 30 10 0
61 -30 -10 0
-62 61 0
-52 -53 -54 -55 -56 -57 -58 -59 -60 -61 62 0
-63 -31 41 0
-63 31 -41 0
63 31 41 0
63 -31 -41 0
-73 63 0
-64 -32 42 0
-64 32 -42 0
64 32 42 0
64 -32 -42 0
-73 64 0
-65 -33 43 0
-65 33 -43 0
65 33 43 0
65 -33 -43 0
-73 65 0
-66 -34 44 0
-66 34 -44 0
66 34 44 0
66 -34 -44 0
-73 66 0
-67 -35 45 0
-67 35 -45 0
67 35 45 0
67 -35 -45 0
-73 67 0
-68 -36 46 0
-68 36 -46 0
68 36 46 0
68 -36 -46 0
-73 68 0
-69 -37 47 0
-69 37 -47 0
69 37 47 0
69 -37 -47 0
-73 69 0
-70 -38 48 0
-70 38 -48 0
70 38 48 0
70 -38 -48 0
-73 70 0
-71 -39 49 0
-71 39 -49 0
71 39 49 0
71 -39 -49 0
-73 71 0
-72 -40 50 0
-72 40 -50 0
72 40 50 0
72 -40 -50 0
-73 72 0
-63 -64 -65 -66 -67 -68 -69 -70 -71 -72 73 0
-62 51 73 0
-51 5 0
-62 5 0
-5 51 62 0
-76 -1 1 0
-76 1 -1 0
76 1 1 0
76 -1 -1 0
-86 76 0
-77 -2 2 0
-77 2 -2 0
77 2 2 0
77 -2 -2 0
-86 77 0
-78 -3 3 0
-78 3 -3 0
78 3 3 0
78 -3 -3 0
-86 78 0
-79 -4 4 0
-79 4 -4 0
79 4 4 0
79 -4 -4 0
-86 79 0
-80 -5 5 0
-80 5 -5 0
80 5 5 0
80 -5 -5 0
-86 80 0
-81 -6 6 0
-81 6 -6 0
81 6 6 0
81 -6 -6 0
-86 81 0
-82 -7 7 0
-82 7 -7 0
82 7 7 0
82 -7 -7 0
-86 82 0
-83 -8 8 0
-83 8 -8 0
83 8 8 0
83 -8 -8 0
-86 83 0
-84 -9 9 0
-84 9 -9 0
84 9 9 0
84 -9 -9 0
-86 84 0
-85 -10 10 0
-85 10 -10 0
85 10 10 0
85 -10 -10 0
-86 85 0
-76 -77 -78 -79 -80 -81 -82 -83 -84 -85 86 0
-87 -21 41 0
-87 21 -41 0
87 21 41 0
87 -21 -41 0
-97 87 0
-88 -22 42 0
-88 22 -42 0
88 22 42 0
88 -22 -42 0
-97 88 0
-89 -23 43 0
-89 23 -43 0
89 23 43 0
89 -23 -43 0
-97 89 0
-90 -24 44 0
-90 24 -44 0
90 24 44 0
90 -24 -44 0
-97 90 0
-91 -25 45 0
-91 25 -45 0
91 25 45 0
91 -25 -45 0
-97 91 0
-92 -26 46 0
-92 26 -46 0
92 26 46 0
92 -26 -46 0
-97 92 0
-93 -27 47 0
-93 27 -47 0
93 27 47 0
93 -27 -47 0
-97 93 0
-94 -28 48 0
-94 28 -48 0
94 28 48 0
94 -28 -48 0
-97 94 0
-95 -29 49 0
-95 29 -49 0
95 29 49 0
95 -29 -49 0
-97 95 0
-96 -30 50 0
-96 30 -50 0
96 30 50 0
96 -30 -50 0
-97 96 0
-87 -88 -89 -90 -91 -92 -93 -94 -95 -96 97 0
-86 5 97 0
-5 6 0
-86 6 0
-6 5 86 0
